     Program PWSCF v.5.3.0 (svn rev. 11974) starts on  4Apr2016 at 13:15:20

     Current dimensions of program PWSCF are:
     Max number of different atomic species (ntypx) = 10
     Max number of k-points (npk) =  40000
     Max angular momentum in pseudopotentials (lmaxx) =  3
               file C.pbe-rrkjus.UPF: wavefunction(s)  2S 2P renormalized

     Subspace diagonalization in iterative solution of the eigenvalue problem:
     a serial algorithm will be used

     bravais-lattice index     =            4
     lattice parameter (alat)  =       4.6531  a.u.
     unit-cell volume          =     354.3310 (a.u.)^3
     number of atoms/cell      =            2
     number of atomic types    =            1
     number of electrons       =         8.00
     number of Kohn-Sham states=            8
     kinetic-energy cutoff     =      60.0000  Ry
     charge density cutoff     =     720.0000  Ry
     convergence threshold     =      1.0E-10
     mixing beta               =       0.7000
     number of iterations used =            8  plain     mixing
     Exchange-correlation      =  SLA  PW   PBE  PBE ( 1  4  3  4 0 0)

     celldm(1)=   4.653073  celldm(2)=   0.000000  celldm(3)=   4.061244
     celldm(4)=   0.000000  celldm(5)=   0.000000  celldm(6)=   0.000000

     crystal axes: (cart. coord. in units of alat)
               a(1) = (   1.000000   0.000000   0.000000 )
               a(2) = (  -0.500000   0.866025   0.000000 )
               a(3) = (   0.000000   0.000000   4.061244 )

     reciprocal axes: (cart. coord. in units 2 pi/alat)
               b(1) = (  1.000000  0.577350 -0.000000 )
               b(2) = (  0.000000  1.154701  0.000000 )
               b(3) = (  0.000000 -0.000000  0.246230 )

     PseudoPot. # 1 for C  read from file:
     ./C.pbe-rrkjus.UPF
     MD5 check sum: 00fb224312de0c5b6853bd333518df6f
     Pseudo is Ultrasoft, Zval =  4.0
     Generated by new atomic code, or converted to UPF format
     Using radial grid of  627 points,  4 beta functions with:
                l(1) =   0
                l(2) =   0
                l(3) =   1
                l(4) =   1
     Q(r) pseudized with 0 coefficients

     atomic species   valence    mass     pseudopotential
        C              4.00    12.01070     C ( 1.00)

     24 Sym. Ops., with inversion, found

   Cartesian axes

     site n.     atom                  positions (alat units)
         1           C   tau(   1) = (   0.0000000   0.5773503   2.0306218  )
         2           C   tau(   2) = (   0.5000000   0.2886751   2.0306218  )

     number of k points=   169  Methfessel-Paxton smearing, width (Ry)=  0.0200

     Number of k-points >= 100: set verbosity='high' to print them.

     Largest allocated arrays     est. size (Mb)     dimensions
     Largest temporary arrays     est. size (Mb)     dimensions

     Initial potential from superposition of free atoms

     starting charge    7.99989, renormalised to    8.00000

     negative rho (up, down):  3.450E-07 0.000E+00
     Starting wfc are    8 randomized atomic wfcs

     Self-consistent Calculation

     iteration #  1     ecut=    60.00 Ry     beta=0.70
     CG style diagonalization
     ethr =  1.00E-02,  avg # of iterations =  4.0

     total energy              =     -22.75318994 Ry
     Harris-Foulkes estimate   =     -22.88214133 Ry
     estimated scf accuracy    <       0.21324568 Ry

[...]

     iteration #  3     ecut=    60.00 Ry     beta=0.70
     CG style diagonalization
     c_bands:  1 eigenvalues not converged
     c_bands:  1 eigenvalues not converged
     c_bands:  1 eigenvalues not converged
     c_bands:  2 eigenvalues not converged
     c_bands:  1 eigenvalues not converged
     c_bands:  1 eigenvalues not converged
     c_bands:  1 eigenvalues not converged
     c_bands:  1 eigenvalues not converged
     c_bands:  1 eigenvalues not converged
     c_bands:  1 eigenvalues not converged
     ethr =  4.28E-05,  avg # of iterations =  5.7

     negative rho (up, down):  5.963E-07 0.000E+00

[...]

     iteration #  4     ecut=    60.00 Ry     beta=0.70
     CG style diagonalization
     c_bands:  2 eigenvalues not converged
     c_bands:  1 eigenvalues not converged
     c_bands:  1 eigenvalues not converged
     c_bands:  1 eigenvalues not converged
     c_bands:  1 eigenvalues not converged
     c_bands:  2 eigenvalues not converged
     c_bands:  1 eigenvalues not converged
     c_bands:  1 eigenvalues not converged
     c_bands:  1 eigenvalues not converged
     c_bands:  1 eigenvalues not converged
     c_bands:  1 eigenvalues not converged
     c_bands:  1 eigenvalues not converged
     c_bands:  1 eigenvalues not converged
     c_bands:  1 eigenvalues not converged
     ethr =  2.48E-06,  avg # of iterations =  4.5

[...]

     total energy              =     -22.79119209 Ry
     Harris-Foulkes estimate   =     -22.79119210 Ry
     estimated scf accuracy    <          6.8E-09 Ry

     iteration #  7     ecut=    60.00 Ry     beta=0.70
     CG style diagonalization
     ethr =  8.56E-11,  avg # of iterations =  3.3

     negative rho (up, down):  1.010E-06 0.000E+00

     End of self-consistent calculation

     Number of k-points >= 100: set verbosity='high' to print the bands.

     the Fermi energy is    -0.4472 ev

!    total energy              =     -22.79119210 Ry
     Harris-Foulkes estimate   =     -22.79119210 Ry
     estimated scf accuracy    <          7.4E-11 Ry

     The total energy is the sum of the following terms:

     one-electron contribution =     -90.95474136 Ry
     hartree contribution      =      47.22233538 Ry
     xc contribution           =      -7.02185715 Ry
     ewald contribution        =      27.96304915 Ry
     smearing contrib. (-TS)   =       0.00002188 Ry

     convergence has been achieved in   7 iterations

     Writing output data file graphene.save

     General routines

     Parallel routines

   This run was terminated on:  13:15:44   4Apr2016

   JOB DONE.